% seed = 0

mint = 76;
% maxt = 158;

nActs = 51;
dur = [0,7,2,1,5,3,2,8,5,1,4,5,2,2,1,2,5,3,2,1,1,7,2,1,5,3,2,8,5,1,4,5,2,2,1,2,5,3,2,1,1,7,2,1,5,3,2,8,5,1,0];

nSkills = 3;
sreq = [| 0,0,0,
	| 3,0,2,
	| 5,4,3,
	| 0,2,0,
	| 0,5,4,
	| 2,4,4,
	| 0,5,2,
	| 0,1,4,
	| 3,0,0,
	| 4,0,4,
	| 3,2,0,
	| 0,5,0,
	| 3,2,4,
	| 1,4,4,
	| 0,2,2,
	| 5,5,0,
	| 4,5,4,
	| 0,2,3,
	| 5,3,3,
	| 2,0,6,
	| 1,6,0,
	| 3,5,2,
	| 5,4,3,
	| 5,2,2,
	| 5,5,0,
	| 0,4,4,
	| 3,0,0,
	| 4,1,0,
	| 0,3,2,
	| 4,1,4,
	| 3,2,2,
	| 0,0,4,
	| 3,0,4,
	| 1,0,4,
	| 2,2,2,
	| 0,5,4,
	| 4,5,4,
	| 0,2,3,
	| 5,3,0,
	| 2,4,6,
	| 1,6,2,
	| 3,0,2,
	| 5,4,3,
	| 0,2,2,
	| 5,0,4,
	| 2,0,4,
	| 3,0,0,
	| 0,1,4,
	| 3,3,2,
	| 0,0,4,
	| 0,0,0, |];

% SumOfsreq = 359;

nResources = 22;
mastery = [| true,true,false,
	| true,true,false,
	| true,true,false,
	| false,true,false,
	| false,true,false,
	| true,true,false,
	| false,true,false,
	| false,true,true,
	| false,false,true,
	| false,false,true,
	| true,false,false,
	| true,false,false,
	| false,false,true,
	| false,true,true,
	| false,true,true,
	| true,false,true,
	| true,true,false,
	| false,true,false,
	| true,false,false,
	| true,true,false,
	| false,true,false,
	| true,true,false, |];

nPrecs = 87;
pred = [1,1,1,2,2,3,3,4,4,4,4,5,5,6,6,7,7,8,9,9,10,10,11,11,12,13,14,15,15,16,17,17,18,19,20,21,21,21,22,22,23,23,24,24,24,24,25,25,26,26,27,27,28,29,29,30,30,31,31,32,33,34,35,35,36,37,37,38,39,40,41,41,41,42,42,43,43,44,44,44,44,45,46,47,48,49,50];
succ = [2,3,4,10,5,10,5,10,5,6,7,11,8,9,13,9,11,14,12,14,11,13,14,15,18,16,17,17,19,18,20,21,20,20,22,22,23,24,25,30,25,30,25,26,27,30,28,31,33,29,29,31,34,34,32,33,31,34,35,38,36,37,37,39,38,41,40,40,40,42,42,43,44,50,45,50,45,50,45,46,47,48,49,49,51,51,51];

nUnrels = 239;
unpred = [2,2,2,2,2,2,3,3,3,3,3,5,5,5,5,5,5,5,5,6,6,6,6,6,6,7,7,7,7,8,8,8,8,8,8,8,8,8,9,9,9,9,9,9,10,11,11,11,11,12,12,12,12,12,12,12,12,12,12,12,12,12,13,13,13,13,13,13,13,13,13,13,13,14,14,14,14,15,15,16,16,16,16,16,16,16,16,16,17,17,18,18,18,18,18,18,18,18,19,19,19,19,19,19,19,20,20,20,20,20,20,20,22,22,22,22,22,22,23,23,23,23,23,25,25,25,25,25,25,25,25,26,26,26,26,26,26,27,27,27,27,28,28,28,28,28,28,28,28,28,29,29,29,29,29,29,30,31,31,31,31,32,32,32,32,32,32,32,32,32,32,32,32,33,33,33,33,33,33,33,33,33,33,34,34,34,34,35,35,36,36,36,36,36,36,36,36,37,37,38,38,38,38,38,38,38,39,39,39,39,39,39,40,40,40,40,40,40,42,42,42,42,42,43,43,43,43,45,45,45,45,46,46,46,47,47,48,48,49];
unsucc = [3,4,6,7,9,12,4,6,7,9,12,6,7,9,10,12,13,16,18,7,8,10,11,15,19,8,10,13,16,9,10,11,12,13,15,16,18,19,10,11,13,15,16,19,12,12,13,16,18,13,14,15,16,17,19,21,23,24,26,27,29,32,14,15,17,19,21,23,24,26,27,29,32,15,16,18,19,16,18,17,19,21,23,24,26,27,29,32,18,19,19,21,23,24,26,27,29,32,21,23,24,26,27,29,32,21,23,24,26,27,29,32,23,24,26,27,29,32,24,26,27,29,32,26,27,29,30,32,33,36,38,27,28,30,31,35,39,28,30,33,36,29,30,31,32,33,35,36,38,39,30,31,33,35,36,39,32,32,33,36,38,33,34,35,36,37,39,41,43,44,46,47,49,34,35,37,39,41,43,44,46,47,49,35,36,38,39,36,38,37,39,41,43,44,46,47,49,38,39,39,41,43,44,46,47,49,41,43,44,46,47,49,41,43,44,46,47,49,43,44,46,47,49,44,46,47,49,46,47,49,50,47,48,50,48,50,49,50,50];

USEFUL_RES = [{},
	{1,2,3,6,8,9,10,11,12,13,14,15,16,17,19,20,22},
	{1,2,3,4,5,6,7,8,9,10,11,12,13,14,15,16,17,18,19,20,21,22},
	{1,2,3,4,5,6,7,8,14,15,17,18,20,21,22},
	{1,2,3,4,5,6,7,8,9,10,13,14,15,16,17,18,20,21,22},
	{1,2,3,4,5,6,7,8,9,10,11,12,13,14,15,16,17,18,19,20,21,22},
	{1,2,3,4,5,6,7,8,9,10,13,14,15,16,17,18,20,21,22},
	{1,2,3,4,5,6,7,8,9,10,13,14,15,16,17,18,20,21,22},
	{1,2,3,6,11,12,16,17,19,20,22},
	{1,2,3,6,8,9,10,11,12,13,14,15,16,17,19,20,22},
	{1,2,3,4,5,6,7,8,11,12,14,15,16,17,18,19,20,21,22},
	{1,2,3,4,5,6,7,8,14,15,17,18,20,21,22},
	{1,2,3,4,5,6,7,8,9,10,11,12,13,14,15,16,17,18,19,20,21,22},
	{1,2,3,4,5,6,7,8,9,10,11,12,13,14,15,16,17,18,19,20,21,22},
	{1,2,3,4,5,6,7,8,9,10,13,14,15,16,17,18,20,21,22},
	{1,2,3,4,5,6,7,8,11,12,14,15,16,17,18,19,20,21,22},
	{1,2,3,4,5,6,7,8,9,10,11,12,13,14,15,16,17,18,19,20,21,22},
	{1,2,3,4,5,6,7,8,9,10,13,14,15,16,17,18,20,21,22},
	{1,2,3,4,5,6,7,8,9,10,11,12,13,14,15,16,17,18,19,20,21,22},
	{1,2,3,6,8,9,10,11,12,13,14,15,16,17,19,20,22},
	{1,2,3,4,5,6,7,8,11,12,14,15,16,17,18,19,20,21,22},
	{1,2,3,4,5,6,7,8,9,10,11,12,13,14,15,16,17,18,19,20,21,22},
	{1,2,3,4,5,6,7,8,9,10,11,12,13,14,15,16,17,18,19,20,21,22},
	{1,2,3,4,5,6,7,8,9,10,11,12,13,14,15,16,17,18,19,20,21,22},
	{1,2,3,4,5,6,7,8,11,12,14,15,16,17,18,19,20,21,22},
	{1,2,3,4,5,6,7,8,9,10,13,14,15,16,17,18,20,21,22},
	{1,2,3,6,11,12,16,17,19,20,22},
	{1,2,3,4,5,6,7,8,11,12,14,15,16,17,18,19,20,21,22},
	{1,2,3,4,5,6,7,8,9,10,13,14,15,16,17,18,20,21,22},
	{1,2,3,4,5,6,7,8,9,10,11,12,13,14,15,16,17,18,19,20,21,22},
	{1,2,3,4,5,6,7,8,9,10,11,12,13,14,15,16,17,18,19,20,21,22},
	{8,9,10,13,14,15,16},
	{1,2,3,6,8,9,10,11,12,13,14,15,16,17,19,20,22},
	{1,2,3,6,8,9,10,11,12,13,14,15,16,17,19,20,22},
	{1,2,3,4,5,6,7,8,9,10,11,12,13,14,15,16,17,18,19,20,21,22},
	{1,2,3,4,5,6,7,8,9,10,13,14,15,16,17,18,20,21,22},
	{1,2,3,4,5,6,7,8,9,10,11,12,13,14,15,16,17,18,19,20,21,22},
	{1,2,3,4,5,6,7,8,9,10,13,14,15,16,17,18,20,21,22},
	{1,2,3,4,5,6,7,8,11,12,14,15,16,17,18,19,20,21,22},
	{1,2,3,4,5,6,7,8,9,10,11,12,13,14,15,16,17,18,19,20,21,22},
	{1,2,3,4,5,6,7,8,9,10,11,12,13,14,15,16,17,18,19,20,21,22},
	{1,2,3,6,8,9,10,11,12,13,14,15,16,17,19,20,22},
	{1,2,3,4,5,6,7,8,9,10,11,12,13,14,15,16,17,18,19,20,21,22},
	{1,2,3,4,5,6,7,8,9,10,13,14,15,16,17,18,20,21,22},
	{1,2,3,6,8,9,10,11,12,13,14,15,16,17,19,20,22},
	{1,2,3,6,8,9,10,11,12,13,14,15,16,17,19,20,22},
	{1,2,3,6,11,12,16,17,19,20,22},
	{1,2,3,4,5,6,7,8,9,10,13,14,15,16,17,18,20,21,22},
	{1,2,3,4,5,6,7,8,9,10,11,12,13,14,15,16,17,18,19,20,21,22},
	{8,9,10,13,14,15,16},
	{}];

POTENTIAL_ACT = [{2,3,4,5,6,7,8,9,10,11,12,13,14,15,16,17,18,19,20,21,22,23,24,25,26,27,28,29,30,31,33,34,35,36,37,38,39,40,41,42,43,44,45,46,47,48,49},
	{2,3,4,5,6,7,8,9,10,11,12,13,14,15,16,17,18,19,20,21,22,23,24,25,26,27,28,29,30,31,33,34,35,36,37,38,39,40,41,42,43,44,45,46,47,48,49},
	{2,3,4,5,6,7,8,9,10,11,12,13,14,15,16,17,18,19,20,21,22,23,24,25,26,27,28,29,30,31,33,34,35,36,37,38,39,40,41,42,43,44,45,46,47,48,49},
	{3,4,5,6,7,8,11,12,13,14,15,16,17,18,19,21,22,23,24,25,26,28,29,30,31,35,36,37,38,39,40,41,43,44,48,49},
	{3,4,5,6,7,8,11,12,13,14,15,16,17,18,19,21,22,23,24,25,26,28,29,30,31,35,36,37,38,39,40,41,43,44,48,49},
	{2,3,4,5,6,7,8,9,10,11,12,13,14,15,16,17,18,19,20,21,22,23,24,25,26,27,28,29,30,31,33,34,35,36,37,38,39,40,41,42,43,44,45,46,47,48,49},
	{3,4,5,6,7,8,11,12,13,14,15,16,17,18,19,21,22,23,24,25,26,28,29,30,31,35,36,37,38,39,40,41,43,44,48,49},
	{2,3,4,5,6,7,8,10,11,12,13,14,15,16,17,18,19,20,21,22,23,24,25,26,28,29,30,31,32,33,34,35,36,37,38,39,40,41,42,43,44,45,46,48,49,50},
	{2,3,5,6,7,8,10,13,14,15,17,18,19,20,22,23,24,26,29,30,31,32,33,34,35,36,37,38,40,41,42,43,44,45,46,48,49,50},
	{2,3,5,6,7,8,10,13,14,15,17,18,19,20,22,23,24,26,29,30,31,32,33,34,35,36,37,38,40,41,42,43,44,45,46,48,49,50},
	{2,3,6,9,10,11,13,14,16,17,19,20,21,22,23,24,25,27,28,30,31,33,34,35,37,39,40,41,42,43,45,46,47,49},
	{2,3,6,9,10,11,13,14,16,17,19,20,21,22,23,24,25,27,28,30,31,33,34,35,37,39,40,41,42,43,45,46,47,49},
	{2,3,5,6,7,8,10,13,14,15,17,18,19,20,22,23,24,26,29,30,31,32,33,34,35,36,37,38,40,41,42,43,44,45,46,48,49,50},
	{2,3,4,5,6,7,8,10,11,12,13,14,15,16,17,18,19,20,21,22,23,24,25,26,28,29,30,31,32,33,34,35,36,37,38,39,40,41,42,43,44,45,46,48,49,50},
	{2,3,4,5,6,7,8,10,11,12,13,14,15,16,17,18,19,20,21,22,23,24,25,26,28,29,30,31,32,33,34,35,36,37,38,39,40,41,42,43,44,45,46,48,49,50},
	{2,3,5,6,7,8,9,10,11,13,14,15,16,17,18,19,20,21,22,23,24,25,26,27,28,29,30,31,32,33,34,35,36,37,38,39,40,41,42,43,44,45,46,47,48,49,50},
	{2,3,4,5,6,7,8,9,10,11,12,13,14,15,16,17,18,19,20,21,22,23,24,25,26,27,28,29,30,31,33,34,35,36,37,38,39,40,41,42,43,44,45,46,47,48,49},
	{3,4,5,6,7,8,11,12,13,14,15,16,17,18,19,21,22,23,24,25,26,28,29,30,31,35,36,37,38,39,40,41,43,44,48,49},
	{2,3,6,9,10,11,13,14,16,17,19,20,21,22,23,24,25,27,28,30,31,33,34,35,37,39,40,41,42,43,45,46,47,49},
	{2,3,4,5,6,7,8,9,10,11,12,13,14,15,16,17,18,19,20,21,22,23,24,25,26,27,28,29,30,31,33,34,35,36,37,38,39,40,41,42,43,44,45,46,47,48,49},
	{3,4,5,6,7,8,11,12,13,14,15,16,17,18,19,21,22,23,24,25,26,28,29,30,31,35,36,37,38,39,40,41,43,44,48,49},
	{2,3,4,5,6,7,8,9,10,11,12,13,14,15,16,17,18,19,20,21,22,23,24,25,26,27,28,29,30,31,33,34,35,36,37,38,39,40,41,42,43,44,45,46,47,48,49}];
